(set-logic QF_NRA)
(declare-fun skoC () Real)
(declare-fun skoS () Real)
(declare-fun skoX () Real)
(assert (and (<= skoX 0) (and (not (<= (+ (* (- 1770) skoC) (* 689 skoS)) 0)) (and (= (+ (* skoS skoS) (* skoC skoC)) 1) (and (<= skoX 289) (<= (* (- 1) skoX) 0))))))
(set-info :status sat)
(check-sat)
